results_rootrelaxation/bin012_070_039.srr.sol
solution status: optimal solution found
objective value:                     8.04761904761905
_var445_                           0.0714285714285675 	(obj:1)
_var659_                             0.38095238095238 	(obj:0)
_var678_                            0.190476190476193 	(obj:0)
_var692_                             0.19047619047619 	(obj:1)
_var697_                            0.142857142857142 	(obj:0)
_var705_                            0.476190476190476 	(obj:0)
_var706_                            0.285714285714286 	(obj:0)
_var709_                            0.285714285714287 	(obj:1)
_var713_                           0.0952380952380961 	(obj:2)
_var717_                            0.428571428571427 	(obj:0)
_var723_                             0.19047619047619 	(obj:1)
_var733_                           0.0476190476190482 	(obj:1)
_var742_                           0.0952380952380977 	(obj:2)
_var743_                            0.428571428571426 	(obj:1)
_var747_                             0.14285714285714 	(obj:0)
_var749_                             0.19047619047619 	(obj:2)
_var751_                            0.142857142857141 	(obj:1)
_var755_                             0.38095238095238 	(obj:0)
_var761_                            0.285714285714288 	(obj:1)
_var764_                           0.0952380952380965 	(obj:1)
_var773_                            0.333333333333331 	(obj:1)
_var782_                            0.285714285714287 	(obj:1)
_var786_                            0.238095238095241 	(obj:1)
_var799_                            0.380952380952379 	(obj:0)
_var802_                            0.238095238095241 	(obj:0)
_var803_                            0.071428571428571 	(obj:2)
_var807_                            0.571428571428573 	(obj:0)
_var811_                            0.238095238095238 	(obj:0)
_var812_                            0.238095238095237 	(obj:2)
_var815_                           0.0476190476190468 	(obj:0)
_var818_                            0.285714285714285 	(obj:1)
_var825_                            0.571428571428573 	(obj:1)
_var830_                            0.095238095238094 	(obj:1)
_var832_                           0.0952380952380906 	(obj:2)
_var834_                           0.0714285714285709 	(obj:2)
_var837_                           0.0476190476190491 	(obj:1)
_var842_                             0.19047619047619 	(obj:0)
_var843_                            0.190476190476193 	(obj:1)
_var845_                            0.119047619047618 	(obj:2)
_var847_                            0.285714285714285 	(obj:1)
_var849_                           0.0476190476190478 	(obj:1)
_var850_                            0.285714285714288 	(obj:0)
_var851_                           0.0238095238095255 	(obj:1)
_var856_                           0.0952380952380958 	(obj:1)
_var859_                           0.0238095238095264 	(obj:1)
_var862_                             0.11904761904762 	(obj:2)
_var865_                           0.0952380952380977 	(obj:1)
_var867_                             0.23809523809524 	(obj:1)
_var869_                            0.095238095238095 	(obj:1)
_var870_                            0.166666666666665 	(obj:1)
_var873_                            0.119047619047616 	(obj:1)
_var874_                            0.071428571428573 	(obj:1)
_var875_                            0.190476190476194 	(obj:2)
_var876_                           0.0476190476190499 	(obj:1)
_var878_                           0.0952380952380939 	(obj:2)
_var879_                           0.0476190476190471 	(obj:2)
_var882_                           0.0476190476190471 	(obj:1)
_var884_                           0.0476190476190458 	(obj:1)
