results_rootrelaxation/bin012_070_039.srr.log
SCIP version 8.0.3.5 [precision: 8 byte] [memory: block] [mode: optimized] [LP solver: Soplex 6.0.1.3] [GitHash: 438792519e]
Copyright (c) 2002-2023 Zuse Institute Berlin (ZIB)

External libraries: 
  Readline 8.1         GNU library for command line editing (gnu.org/s/readline)
  Soplex 6.0.1.3       Linear Programming Solver developed at Zuse Institute Berlin (soplex.zib.de) [GitHash: 713be0fe]
  CppAD 20180000.0     Algorithmic Differentiation of C++ algorithms developed by B. Bell (github.com/coin-or/CppAD)
  ZLIB 1.2.11          General purpose compression library by J. Gailly and M. Adler (zlib.net)
  bliss 0.77           Computing Graph Automorphism Groups by T. Junttila and P. Kaski (www.tcs.hut.fi/Software/bliss/)

user parameter file <scip.set> not found - using default parameters

srr/relaxation = TRUE

read problem <instances/bin012_070_039.srr>
============

Original problem: 
original problem has 0 variables (0 bin, 0 int, 0 impl, 0 cont) and 77 constraints

presolving:
presolving (1 rounds: 1 fast, 1 medium, 1 exhaustive):
 0 deleted vars, 0 deleted constraints, 0 added constraints, 0 tightened bounds, 0 added holes, 0 changed sides, 0 changed coefficients
 0 implications, 0 cliques
presolved problem has 0 variables (0 bin, 0 int, 0 impl, 0 cont) and 77 constraints
     77 constraints of type <linear>
Presolving Time: 0.00

 time | node  | left  |LP iter|LP it/n|mem/heur|mdpt |vars |cons |rows |cuts |sepa|confs|strbr|  dualbound   | primalbound  |  gap   | compl. 
  0.0s|     1 |     0 |     1 |     - |   710k |   0 |   1 |  77 |  77 |   0 |  0 |   0 |   0 |      --      |      --      |    Inf | unknown
r 0.1s|     1 |     0 |  1154 |     - |simplero|   0 | 642 |  77 |  77 |   0 |  0 |   0 |   0 |      --      | 2.756346e+01 |    Inf | unknown
r 0.1s|     1 |     0 |  1176 |     - |simplero|   0 | 653 |  77 |  77 |   0 |  0 |   0 |   0 |      --      | 2.701606e+01 |    Inf | unknown
r 0.1s|     1 |     0 |  1215 |     - |simplero|   0 | 664 |  77 |  77 |   0 |  0 |   0 |   0 |      --      | 2.477376e+01 |    Inf | unknown
r 0.1s|     1 |     0 |  1265 |     - |simplero|   0 | 675 |  77 |  77 |   0 |  0 |   0 |   0 |      --      | 2.285071e+01 |    Inf | unknown
r 0.1s|     1 |     0 |  1350 |     - |simplero|   0 | 686 |  77 |  77 |   0 |  0 |   0 |   0 |      --      | 2.065972e+01 |    Inf | unknown
r 0.1s|     1 |     0 |  1439 |     - |simplero|   0 | 697 |  77 |  77 |   0 |  0 |   0 |   0 |      --      | 1.755884e+01 |    Inf | unknown
r 0.1s|     1 |     0 |  1472 |     - |simplero|   0 | 708 |  77 |  77 |   0 |  0 |   0 |   0 |      --      | 1.610621e+01 |    Inf | unknown
r 0.1s|     1 |     0 |  1511 |     - |simplero|   0 | 719 |  77 |  77 |   0 |  0 |   0 |   0 |      --      | 1.404840e+01 |    Inf | unknown
r 0.1s|     1 |     0 |  1526 |     - |simplero|   0 | 719 |  77 |  77 |   0 |  0 |   0 |   0 |      --      | 1.387783e+01 |    Inf | unknown
r 0.1s|     1 |     0 |  1531 |     - |simplero|   0 | 719 |  77 |  77 |   0 |  0 |   0 |   0 |      --      | 1.386355e+01 |    Inf | unknown
r 0.1s|     1 |     0 |  1536 |     - |simplero|   0 | 719 |  77 |  77 |   0 |  0 |   0 |   0 |      --      | 1.385334e+01 |    Inf | unknown
r 0.1s|     1 |     0 |  1574 |     - |simplero|   0 | 730 |  77 |  77 |   0 |  0 |   0 |   0 |      --      | 1.316498e+01 |    Inf | unknown
r 0.1s|     1 |     0 |  1576 |     - |simplero|   0 | 730 |  77 |  77 |   0 |  0 |   0 |   0 |      --      | 1.316393e+01 |    Inf | unknown
r 0.1s|     1 |     0 |  1580 |     - |simplero|   0 | 730 |  77 |  77 |   0 |  0 |   0 |   0 |      --      | 1.316330e+01 |    Inf | unknown
 time | node  | left  |LP iter|LP it/n|mem/heur|mdpt |vars |cons |rows |cuts |sepa|confs|strbr|  dualbound   | primalbound  |  gap   | compl. 
r 0.1s|     1 |     0 |  1583 |     - |simplero|   0 | 730 |  77 |  77 |   0 |  0 |   0 |   0 |      --      | 1.316318e+01 |    Inf | unknown
r 0.1s|     1 |     0 |  1615 |     - |simplero|   0 | 741 |  77 |  77 |   0 |  0 |   0 |   0 |      --      | 1.241757e+01 |    Inf | unknown
r 0.1s|     1 |     0 |  1635 |     - |simplero|   0 | 741 |  77 |  77 |   0 |  0 |   0 |   0 |      --      | 1.209784e+01 |    Inf | unknown
r 0.1s|     1 |     0 |  1643 |     - |simplero|   0 | 741 |  77 |  77 |   0 |  0 |   0 |   0 |      --      | 1.207238e+01 |    Inf | unknown
r 0.1s|     1 |     0 |  1676 |     - |simplero|   0 | 752 |  77 |  77 |   0 |  0 |   0 |   0 |      --      | 1.132060e+01 |    Inf | unknown
r 0.1s|     1 |     0 |  1692 |     - |simplero|   0 | 752 |  77 |  77 |   0 |  0 |   0 |   0 |      --      | 1.117167e+01 |    Inf | unknown
r 0.1s|     1 |     0 |  1695 |     - |simplero|   0 | 752 |  77 |  77 |   0 |  0 |   0 |   0 |      --      | 1.114343e+01 |    Inf | unknown
r 0.1s|     1 |     0 |  1722 |     - |simplero|   0 | 763 |  77 |  77 |   0 |  0 |   0 |   0 |      --      | 1.046929e+01 |    Inf | unknown
r 0.1s|     1 |     0 |  1730 |     - |simplero|   0 | 763 |  77 |  77 |   0 |  0 |   0 |   0 |      --      | 1.044261e+01 |    Inf | unknown
r 0.1s|     1 |     0 |  1750 |     - |simplero|   0 | 774 |  77 |  77 |   0 |  0 |   0 |   0 |      --      | 1.018092e+01 |    Inf | unknown
r 0.1s|     1 |     0 |  1759 |     - |simplero|   0 | 774 |  77 |  77 |   0 |  0 |   0 |   0 |      --      | 1.016182e+01 |    Inf | unknown
r 0.1s|     1 |     0 |  1764 |     - |simplero|   0 | 774 |  77 |  77 |   0 |  0 |   0 |   0 |      --      | 1.015310e+01 |    Inf | unknown
r 0.1s|     1 |     0 |  1765 |     - |simplero|   0 | 774 |  77 |  77 |   0 |  0 |   0 |   0 |      --      | 1.015267e+01 |    Inf | unknown
r 0.1s|     1 |     0 |  1787 |     - |simplero|   0 | 785 |  77 |  77 |   0 |  0 |   0 |   0 |      --      | 1.000983e+01 |    Inf | unknown
r 0.1s|     1 |     0 |  1797 |     - |simplero|   0 | 785 |  77 |  77 |   0 |  0 |   0 |   0 |      --      | 9.989374e+00 |    Inf | unknown
 time | node  | left  |LP iter|LP it/n|mem/heur|mdpt |vars |cons |rows |cuts |sepa|confs|strbr|  dualbound   | primalbound  |  gap   | compl. 
r 0.1s|     1 |     0 |  1798 |     - |simplero|   0 | 785 |  77 |  77 |   0 |  0 |   0 |   0 |      --      | 9.989082e+00 |    Inf | unknown
r 0.1s|     1 |     0 |  1812 |     - |simplero|   0 | 796 |  77 |  77 |   0 |  0 |   0 |   0 |      --      | 9.796671e+00 |    Inf | unknown
r 0.1s|     1 |     0 |  1829 |     - |simplero|   0 | 796 |  77 |  77 |   0 |  0 |   0 |   0 |      --      | 9.672913e+00 |    Inf | unknown
r 0.1s|     1 |     0 |  1842 |     - |simplero|   0 | 796 |  77 |  77 |   0 |  0 |   0 |   0 |      --      | 9.656785e+00 |    Inf | unknown
r 0.1s|     1 |     0 |  1845 |     - |simplero|   0 | 796 |  77 |  77 |   0 |  0 |   0 |   0 |      --      | 9.656131e+00 |    Inf | unknown
r 0.1s|     1 |     0 |  1876 |     - |simplero|   0 | 807 |  77 |  77 |   0 |  0 |   0 |   0 |      --      | 9.470608e+00 |    Inf | unknown
  0.1s|     1 |     0 |  1881 |     - |  3860k |   0 | 807 |  77 |  77 |   0 |  0 |   0 |   0 |      --      | 9.470608e+00 |    Inf | unknown
r 0.1s|     1 |     0 |  1881 |     - |simplero|   0 | 807 |  77 |  77 |   0 |  0 |   0 |   0 |      --      | 9.469891e+00 |    Inf | unknown
r 0.1s|     1 |     0 |  1928 |     - |simplero|   0 | 818 |  77 |  77 |   0 |  0 |   0 |   0 |      --      | 8.915750e+00 |    Inf | unknown
r 0.1s|     1 |     0 |  1947 |     - |simplero|   0 | 818 |  77 |  77 |   0 |  0 |   0 |   0 |      --      | 8.842361e+00 |    Inf | unknown
r 0.1s|     1 |     0 |  1948 |     - |simplero|   0 | 818 |  77 |  77 |   0 |  0 |   0 |   0 |      --      | 8.842174e+00 |    Inf | unknown
r 0.1s|     1 |     0 |  1968 |     - |simplero|   0 | 829 |  77 |  77 |   0 |  0 |   0 |   0 |      --      | 8.605575e+00 |    Inf | unknown
r 0.1s|     1 |     0 |  1982 |     - |simplero|   0 | 838 |  77 |  77 |   0 |  0 |   0 |   0 |      --      | 8.485437e+00 |    Inf | unknown
r 0.1s|     1 |     0 |  1987 |     - |simplero|   0 | 838 |  77 |  77 |   0 |  0 |   0 |   0 |      --      | 8.480984e+00 |    Inf | unknown
r 0.1s|     1 |     0 |  2011 |     - |simplero|   0 | 848 |  77 |  77 |   0 |  0 |   0 |   0 |      --      | 8.314969e+00 |    Inf | unknown
 time | node  | left  |LP iter|LP it/n|mem/heur|mdpt |vars |cons |rows |cuts |sepa|confs|strbr|  dualbound   | primalbound  |  gap   | compl. 
r 0.1s|     1 |     0 |  2022 |     - |simplero|   0 | 848 |  77 |  77 |   0 |  0 |   0 |   0 |      --      | 8.301704e+00 |    Inf | unknown
r 0.1s|     1 |     0 |  2037 |     - |simplero|   0 | 857 |  77 |  77 |   0 |  0 |   0 |   0 |      --      | 8.206858e+00 |    Inf | unknown
r 0.1s|     1 |     0 |  2040 |     - |simplero|   0 | 857 |  77 |  77 |   0 |  0 |   0 |   0 |      --      | 8.204771e+00 |    Inf | unknown
r 0.1s|     1 |     0 |  2055 |     - |simplero|   0 | 866 |  77 |  77 |   0 |  0 |   0 |   0 |      --      | 8.155259e+00 |    Inf | unknown
r 0.1s|     1 |     0 |  2056 |     - |simplero|   0 | 866 |  77 |  77 |   0 |  0 |   0 |   0 |      --      | 8.155119e+00 |    Inf | unknown
r 0.1s|     1 |     0 |  2070 |     - |simplero|   0 | 873 |  77 |  77 |   0 |  0 |   0 |   0 |      --      | 8.108829e+00 |    Inf | unknown
r 0.1s|     1 |     0 |  2080 |     - |simplero|   0 | 873 |  77 |  77 |   0 |  0 |   0 |   0 |      --      | 8.094178e+00 |    Inf | unknown
r 0.1s|     1 |     0 |  2098 |     - |simplero|   0 | 878 |  77 |  77 |   0 |  0 |   0 |   0 |      --      | 8.064789e+00 |    Inf | unknown
r 0.1s|     1 |     0 |  2109 |     - |simplero|   0 | 884 |  77 |  77 |   0 |  0 |   0 |   0 |      --      | 8.049020e+00 |    Inf | unknown
r 0.1s|     1 |     0 |  2114 |     - |simplero|   0 | 887 |  77 |  77 |   0 |  0 |   0 |   0 |      --      | 8.047619e+00 |    Inf | unknown
  0.1s|     1 |     0 |  2114 |     - |  4458k |   0 | 887 |  77 |  77 |   0 |  0 |   0 |   0 | 8.047619e+00 | 8.047619e+00 |   0.00%| unknown
  0.1s|     1 |     0 |  2114 |     - |  4458k |   0 | 887 |  77 |  77 |   0 |  0 |   0 |   0 | 8.047619e+00 | 8.047619e+00 |   0.00%| unknown

SCIP Status        : problem is solved [optimal solution found]
Solving Time (sec) : 0.11
Solving Nodes      : 1
Primal Bound       : +8.04761904761905e+00 (53 solutions)
Dual Bound         : +8.04761904761905e+00
Gap                : 0.00 %

written transformed problem to file <results_rootrelaxation/bin012_070_039.srr.lp>
written transformed problem to file <results_rootrelaxation/bin012_070_039.srr.cip>

written solution information to file <results_rootrelaxation/bin012_070_039.srr.sol>



